letting n =  10
letting blocks =  [[1, 7], [1, 10], [2, 2], [2, 5], [3, 4], [3, 5], [3, 7], [4, 1], [4, 3], [5, 1], [5, 2], [6, 2], [6, 3], [7, 1], [7, 5], [7, 6], [7, 7], [8, 5], [8, 6], [9, 1], [9, 5], [9, 8], [10, 1], [10, 10]]
